crystal structure from VMoWS2 with Hexag
   1.00000000000000     
     8.3085283831155046    4.8287564295159244    0.0000000000000000
    -8.2813048641499023    4.7816268551911012    0.0000000000000000
     0.0000000000000000    0.0000000000000000   30.0000000000000000
   V    Mo   W    S 
     3     3     3    18
Direct
  0.0352636075706342  0.0176109237515271 -0.0013673696909077
  1.0352598632625207  0.3509336267353347 -0.0013663151745366
  0.0352540687400170  0.6842713885966853 -0.0013671056499370
  0.3428543661793172  0.0047447716561599 -0.0008025901339174
  0.3428500776716774  0.3380580946200462 -0.0008029174531307
  0.3428556573168532  0.6713736359837397 -0.0008023948024162
  0.6287806656149046 -0.0189802258023419  0.0020832111983100
  0.6287868737098418  0.3143601391823924  0.0020818435660699
  0.6287861291944575  0.6476940935919965  0.0020821257489694
  0.1101849021605688  0.2217222995114222  0.9470196964100007
  0.2217784801475214  0.1108639218461785  0.0524450355258125
  0.1101848850292585  0.5550496546891101  0.9470195828411795
  0.2217771459176854  0.4441926813457189  0.0524457374447670
  0.1101871278290304  0.8883943927663175  0.9470185622147603
  0.2217855470816459  0.7775327779488495  0.0524435780116011
  0.4403126611105100  0.2201183984154617  0.9439657924665791
  0.5507532822969210  0.1086815303051154  0.0573595827936865
  0.4403125980058039  0.5534482393300347  0.9439657223044272
  0.5507587926451116  0.4420160848734116  0.0573598534601954
  0.4403055246890046  0.8867787190386044  0.9439695463703826
  0.5507509647822851  0.7753424099870045  0.0573606502922959
  0.7793053604575866  0.2229476617588161  0.9562431552961880
  0.8901697648546595  0.1117151799155054  0.0430537628516215
  0.7793071892965954  0.5562854915501589  0.9562418697204709
  0.8901706893802860  0.4450509427764522  0.0430535155791572
  0.7793068270005958  0.8896186017442711  0.9562423735898935
  0.8901714014916868  0.7783890173595971  0.0430533944184693
 
  0.00000000E+00  0.00000000E+00  0.00000000E+00
  0.00000000E+00  0.00000000E+00  0.00000000E+00
  0.00000000E+00  0.00000000E+00  0.00000000E+00
  0.00000000E+00  0.00000000E+00  0.00000000E+00
  0.00000000E+00  0.00000000E+00  0.00000000E+00
  0.00000000E+00  0.00000000E+00  0.00000000E+00
  0.00000000E+00  0.00000000E+00  0.00000000E+00
  0.00000000E+00  0.00000000E+00  0.00000000E+00
  0.00000000E+00  0.00000000E+00  0.00000000E+00
  0.00000000E+00  0.00000000E+00  0.00000000E+00
  0.00000000E+00  0.00000000E+00  0.00000000E+00
  0.00000000E+00  0.00000000E+00  0.00000000E+00
  0.00000000E+00  0.00000000E+00  0.00000000E+00
  0.00000000E+00  0.00000000E+00  0.00000000E+00
  0.00000000E+00  0.00000000E+00  0.00000000E+00
  0.00000000E+00  0.00000000E+00  0.00000000E+00
  0.00000000E+00  0.00000000E+00  0.00000000E+00
  0.00000000E+00  0.00000000E+00  0.00000000E+00
  0.00000000E+00  0.00000000E+00  0.00000000E+00
  0.00000000E+00  0.00000000E+00  0.00000000E+00
  0.00000000E+00  0.00000000E+00  0.00000000E+00
  0.00000000E+00  0.00000000E+00  0.00000000E+00
  0.00000000E+00  0.00000000E+00  0.00000000E+00
  0.00000000E+00  0.00000000E+00  0.00000000E+00
  0.00000000E+00  0.00000000E+00  0.00000000E+00
  0.00000000E+00  0.00000000E+00  0.00000000E+00
  0.00000000E+00  0.00000000E+00  0.00000000E+00
