crystal structure from VMoWS2 with Hexag
   1.00000000000000     
     8.3085281653182026    4.8287560261471887    0.0000000000000000
    -8.2813049603539195    4.7816268676187574    0.0000000000000000
     0.0000000000000000    0.0000000000000000   30.0000000000000000
   V    Mo   W    S 
     3     3     3    18
Direct
  0.0352636482716046  0.0176109598819574 -0.0013674356485106
  1.0352599011968746  0.3509336283989509 -0.0013663813130119
  0.0352540627704688  0.6842713856406306 -0.0013671674198617
  0.3428543486128257  0.0047447810504130 -0.0008025793129842
  0.3428500271457477  0.3380580700995073 -0.0008029060232022
  0.3428556411666643  0.6713736108740050 -0.0008023838710571
  0.6287806481901107 -0.0189802350646418  0.0020832567447359
  0.6287868561540675  0.3143601256910376  0.0020818889435158
  0.6287861118654481  0.6476940882764534  0.0020821710922129
  0.1101850037493711  0.2217223504023190  0.9470196323041693
  0.2217783145786818  0.1108638384718071  0.0524450217755955
  0.1101849913672294  0.5550496929278990  0.9470195184870908
  0.2217769809874497  0.4441926001352457  0.0524457239857891
  0.1101872341418196  0.8883944636256055  0.9470184983321889
  0.2217853953112918  0.7775327022128988  0.0524435647590457
  0.4403127765805628  0.2201184560086714  0.9439658224350108
  0.5507531771692582  0.1086814757656131  0.0573596331079548
  0.4403127132224993  0.5534482978307426  0.9439657522374090
  0.5507586894317674  0.4420160328572150  0.0573599024900905
  0.4403056404735879  0.8867787768875611  0.9439695788861406
  0.5507508600020232  0.7753423582892673  0.0573607004473079
  0.7793053259820870  0.2229476441028327  0.9562431854965496
  0.8901698766587132  0.1117152358301607  0.0430537374777338
  0.7793071338442987  0.5562854627371867  0.9562418958878823
  0.8901707939664222  0.4450509810350682  0.0430534924627516
  0.7793067937866973  0.8896185841225837  0.9562424041778166
  0.8901715068094080  0.7783890853865808  0.0430533712576272
 
  0.00000000E+00  0.00000000E+00  0.00000000E+00
  0.00000000E+00  0.00000000E+00  0.00000000E+00
  0.00000000E+00  0.00000000E+00  0.00000000E+00
  0.00000000E+00  0.00000000E+00  0.00000000E+00
  0.00000000E+00  0.00000000E+00  0.00000000E+00
  0.00000000E+00  0.00000000E+00  0.00000000E+00
  0.00000000E+00  0.00000000E+00  0.00000000E+00
  0.00000000E+00  0.00000000E+00  0.00000000E+00
  0.00000000E+00  0.00000000E+00  0.00000000E+00
  0.00000000E+00  0.00000000E+00  0.00000000E+00
  0.00000000E+00  0.00000000E+00  0.00000000E+00
  0.00000000E+00  0.00000000E+00  0.00000000E+00
  0.00000000E+00  0.00000000E+00  0.00000000E+00
  0.00000000E+00  0.00000000E+00  0.00000000E+00
  0.00000000E+00  0.00000000E+00  0.00000000E+00
  0.00000000E+00  0.00000000E+00  0.00000000E+00
  0.00000000E+00  0.00000000E+00  0.00000000E+00
  0.00000000E+00  0.00000000E+00  0.00000000E+00
  0.00000000E+00  0.00000000E+00  0.00000000E+00
  0.00000000E+00  0.00000000E+00  0.00000000E+00
  0.00000000E+00  0.00000000E+00  0.00000000E+00
  0.00000000E+00  0.00000000E+00  0.00000000E+00
  0.00000000E+00  0.00000000E+00  0.00000000E+00
  0.00000000E+00  0.00000000E+00  0.00000000E+00
  0.00000000E+00  0.00000000E+00  0.00000000E+00
  0.00000000E+00  0.00000000E+00  0.00000000E+00
  0.00000000E+00  0.00000000E+00  0.00000000E+00
