crystal structure from VMoWS2 with Hexag
   1.00000000000000     
     8.3085287805099313    4.8287564128712708    0.0000000000000000
    -8.2813055174468300    4.7816272011051746    0.0000000000000000
     0.0000000000000000    0.0000000000000000   30.0000000000000000
   V    Mo   W    S 
     3     3     3    18
Direct
  0.0352636578672306  0.0176109731393622 -0.0013674295086028
  1.0352599095958965  0.3509336243403738 -0.0013663754626259
  0.0352540499659624  0.6842713789573664 -0.0013671605129973
  0.3428543521797977  0.0047447869240745 -0.0008025804219485
  0.3428500134351896  0.3380580698093870 -0.0008029072802029
  0.3428556456191126  0.6713736024186178 -0.0008023849314354
  0.6287806501855118 -0.0189802339656760  0.0020832535833468
  0.6287868581737662  0.3143601250408903  0.0020818858467177
  0.6287861155818576  0.6476940917366506  0.0020821677156719
  0.1101849908310259  0.2217223441182863  0.9470196408581062
  0.2217783229894212  0.1108638425482807  0.0524450203565842
  0.1101849816698490  0.5550496799682377  0.9470195262839646
  0.2217769892297193  0.4441926052383423  0.0524457237096143
  0.1101872237755835  0.8883944664099058  0.9470185063833578
  0.2217854120294150  0.7775327096375969  0.0524435652293409
  0.4403127640498578  0.2201184495747220  0.9439658198369717
  0.5507531868582091  0.1086814796034764  0.0573596279560622
  0.4403127033000314  0.5534482942653706  0.9439657483473421
  0.5507587013181326  0.4420160394650399  0.0573598968732057
  0.4403056303630330  0.8867787706949334  0.9439695765090005
  0.5507508712988953  0.7753423642159915  0.0573606951430473
  0.7793053327099152  0.2229476480232501  0.9562431842247107
  0.8901698718784065  0.1117152333709698  0.0430537372525058
  0.7793071321123731  0.5562854613293308  0.9562418930364488
  0.8901707856381652  0.4450509705207822  0.0430534934492176
  0.7793068016030913  0.8896185881219660  0.9562424027198316
  0.8901714991775321  0.7783890879700450  0.0430533720027562
 
  0.00000000E+00  0.00000000E+00  0.00000000E+00
  0.00000000E+00  0.00000000E+00  0.00000000E+00
  0.00000000E+00  0.00000000E+00  0.00000000E+00
  0.00000000E+00  0.00000000E+00  0.00000000E+00
  0.00000000E+00  0.00000000E+00  0.00000000E+00
  0.00000000E+00  0.00000000E+00  0.00000000E+00
  0.00000000E+00  0.00000000E+00  0.00000000E+00
  0.00000000E+00  0.00000000E+00  0.00000000E+00
  0.00000000E+00  0.00000000E+00  0.00000000E+00
  0.00000000E+00  0.00000000E+00  0.00000000E+00
  0.00000000E+00  0.00000000E+00  0.00000000E+00
  0.00000000E+00  0.00000000E+00  0.00000000E+00
  0.00000000E+00  0.00000000E+00  0.00000000E+00
  0.00000000E+00  0.00000000E+00  0.00000000E+00
  0.00000000E+00  0.00000000E+00  0.00000000E+00
  0.00000000E+00  0.00000000E+00  0.00000000E+00
  0.00000000E+00  0.00000000E+00  0.00000000E+00
  0.00000000E+00  0.00000000E+00  0.00000000E+00
  0.00000000E+00  0.00000000E+00  0.00000000E+00
  0.00000000E+00  0.00000000E+00  0.00000000E+00
  0.00000000E+00  0.00000000E+00  0.00000000E+00
  0.00000000E+00  0.00000000E+00  0.00000000E+00
  0.00000000E+00  0.00000000E+00  0.00000000E+00
  0.00000000E+00  0.00000000E+00  0.00000000E+00
  0.00000000E+00  0.00000000E+00  0.00000000E+00
  0.00000000E+00  0.00000000E+00  0.00000000E+00
  0.00000000E+00  0.00000000E+00  0.00000000E+00
