crystal structure from VMoWS2 with Hexag
   1.00000000000000     
     8.3085281999547451    4.8287563166661771    0.0000000000000000
    -8.2813047321591231    4.7816267556969470    0.0000000000000000
     0.0000000000000000    0.0000000000000000   30.0000000000000000
   V    Mo   W    S 
     3     3     3    18
Direct
  0.0352636049492202  0.0176109197616646 -0.0013673724448317
  1.0352598611449704  0.3509336284642585 -0.0013663179108426
  0.0352540731391515  0.6842713907104807 -0.0013671087749192
  0.3428543648431781  0.0047447675600009 -0.0008025896179848
  0.3428500815411755  0.3380580960095753 -0.0008029168983701
  0.3428556555718364  0.6713736391092503 -0.0008023942977552
  0.6287806650544007 -0.0189802261223005  0.0020832127723709
  0.6287868726349221  0.3143601392780035  0.0020818452451293
  0.6287861278706967  0.6476940923442724  0.0020821274400784
  0.1101849073851804  0.2217223022036120  0.9470196930715996
  0.2217784755078382  0.1108639194528786  0.0524450355588559
  0.1101848894715315  0.5550496593220160  0.9470195795712590
  0.2217771410393662  0.4441926788099724  0.0524457373521105
  0.1101871324534308  0.8883943926022170  0.9470185589251742
  0.2217855396952375  0.7775327744052051  0.0524435778139931
  0.4403126660659002  0.2201184008693455  0.9439657939760713
  0.5507532779676456  0.1086815282297858  0.0573595849259730
  0.4403126026140787  0.5534482415683116  0.9439657239183349
  0.5507587873749719  0.4420160821541420  0.0573598557842999
  0.4403055297306850  0.8867787217218257  0.9439695473805700
  0.5507509602156565  0.7753424076504173  0.0573606524496624
  0.7793053578862658  0.2229476605057241  0.9562431561486576
  0.8901697676961268  0.1117151814451096  0.0430537625589774
  0.7793071892088733  0.5562854916097668  0.9562418710461367
  0.8901706932233411  0.4450509467001089  0.0430535149650479
  0.7793068240427850  0.8896186001452363  0.9562423743986795
  0.8901714051085116  0.7783890169666933  0.0430533938417135
 
  0.00000000E+00  0.00000000E+00  0.00000000E+00
  0.00000000E+00  0.00000000E+00  0.00000000E+00
  0.00000000E+00  0.00000000E+00  0.00000000E+00
  0.00000000E+00  0.00000000E+00  0.00000000E+00
  0.00000000E+00  0.00000000E+00  0.00000000E+00
  0.00000000E+00  0.00000000E+00  0.00000000E+00
  0.00000000E+00  0.00000000E+00  0.00000000E+00
  0.00000000E+00  0.00000000E+00  0.00000000E+00
  0.00000000E+00  0.00000000E+00  0.00000000E+00
  0.00000000E+00  0.00000000E+00  0.00000000E+00
  0.00000000E+00  0.00000000E+00  0.00000000E+00
  0.00000000E+00  0.00000000E+00  0.00000000E+00
  0.00000000E+00  0.00000000E+00  0.00000000E+00
  0.00000000E+00  0.00000000E+00  0.00000000E+00
  0.00000000E+00  0.00000000E+00  0.00000000E+00
  0.00000000E+00  0.00000000E+00  0.00000000E+00
  0.00000000E+00  0.00000000E+00  0.00000000E+00
  0.00000000E+00  0.00000000E+00  0.00000000E+00
  0.00000000E+00  0.00000000E+00  0.00000000E+00
  0.00000000E+00  0.00000000E+00  0.00000000E+00
  0.00000000E+00  0.00000000E+00  0.00000000E+00
  0.00000000E+00  0.00000000E+00  0.00000000E+00
  0.00000000E+00  0.00000000E+00  0.00000000E+00
  0.00000000E+00  0.00000000E+00  0.00000000E+00
  0.00000000E+00  0.00000000E+00  0.00000000E+00
  0.00000000E+00  0.00000000E+00  0.00000000E+00
  0.00000000E+00  0.00000000E+00  0.00000000E+00
